
Gurobi 7.0.2 (win64, Python) logging started 07/08/17 15:05:56

Read MPS format model from file ./model/afiro.mps
Reading time = 0.02 seconds
AFIRO: 27 rows, 32 columns, 83 nonzeros
Optimize a model with 27 rows, 32 columns and 83 nonzeros
Coefficient statistics:
  Matrix range     [1e-01, 2e+00]
  Objective range  [3e-01, 1e+01]
  Bounds range     [0e+00, 0e+00]
  RHS range        [4e+01, 5e+02]
Presolve removed 18 rows and 20 columns
Presolve time: 0.00s
Presolved: 9 rows, 12 columns, 32 nonzeros

Iteration    Objective       Primal Inf.    Dual Inf.      Time
       0   -4.8565680e+02   1.363638e+02   0.000000e+00      0s
       3   -4.6475314e+02   0.000000e+00   0.000000e+00      0s

Solved in 3 iterations and 0.00 seconds
Optimal objective -4.647531429e+02

Gurobi 7.0.2 (win64, Python) logging started 07/08/17 15:12:23

Read MPS format model from file ./model/afiro.mps
Reading time = 0.00 seconds
AFIRO: 27 rows, 32 columns, 83 nonzeros
Optimize a model with 27 rows, 32 columns and 83 nonzeros
Coefficient statistics:
  Matrix range     [1e-01, 2e+00]
  Objective range  [3e-01, 1e+01]
  Bounds range     [0e+00, 0e+00]
  RHS range        [4e+01, 5e+02]
Presolve removed 18 rows and 20 columns
Presolve time: 0.00s
Presolved: 9 rows, 12 columns, 32 nonzeros

Iteration    Objective       Primal Inf.    Dual Inf.      Time
       0   -4.8565680e+02   1.363638e+02   0.000000e+00      0s
       3   -4.6475314e+02   0.000000e+00   0.000000e+00      0s

Solved in 3 iterations and 0.00 seconds
Optimal objective -4.647531429e+02
